40 67 5
0 13 1
0 23 1
1 13 1
1 17 1
1 39 1
2 17 1
3 15 1
3 19 1
3 34 1
3 36 1
3 37 1
3 39 1
4 13 1
4 19 1
5 7 1
5 8 1
5 14 1
5 24 1
5 25 1
6 19 1
6 25 1
6 33 1
7 25 1
7 28 1
7 30 1
7 39 1
8 13 1
8 38 1
9 29 1
10 19 1
10 22 1
11 15 1
11 31 1
12 26 1
12 27 1
12 30 1
13 14 1
14 15 1
14 21 1
14 39 1
15 18 1
15 35 1
15 39 1
16 33 1
16 35 1
17 24 1
17 37 1
18 19 1
18 20 1
18 26 1
18 31 1
19 30 1
19 36 1
19 37 1
20 28 1
21 26 1
22 24 1
22 28 1
22 33 1
22 38 1
23 37 1
24 28 1
24 37 1
24 38 1
27 29 1
30 38 1
32 39 1
5 14 28 36 39